Traveling Salesman Problem/TSP_generados/Aleatorio1620390918_8.tsp
NAME: Aleatorio1620390918_8.tsp
COMMENT: Randomly generated scenario
TYPE: TSP
DIMENSION: 8
EDGE_WEIGHT_TYPE: ATT
NODE_COORD_SECTION
1 43.03 5.39
2 39.25 21.39
3 32.44 9.72
4 45.24 23.74
5 47.21 26.29
6 8.86 0.49
7 28.42 46.21
8 46.24 43.29
