Traveling Salesman Problem/TSP_generados/Aleatorio1620390918_8.opt.tour
NAME: Aleatorio1620390918_8.opt.tour
COMMENT: Optimal solution for Aleatorio1620390918_8 (147.67408265293034)
TYPE: TOUR
DIMENSION: 8
TOUR_SECTION
1 2 4 5 8 7 6 3
-1
EOF
